c FILE: i080-233

c SOURCE: From steinlib

c DESCRIPTION: Steinlib instance with 80 nodes and 160 edges.

p edge 80 160
e 1 10
e 1 19
e 1 23
e 1 31
e 1 34
e 1 36
e 1 37
e 1 49
e 1 55
e 1 60
e 1 73
e 1 80
e 2 6
e 2 24
e 2 28
e 2 65
e 2 69
e 2 80
e 3 19
e 3 57
e 4 60
e 5 37
e 5 57
e 5 69
e 6 45
e 6 57
e 6 78
e 7 18
e 7 26
e 7 31
e 7 77
e 7 80
e 8 19
e 8 51
e 8 72
e 9 12
e 9 22
e 9 26
e 9 28
e 9 43
e 9 49
e 9 51
e 9 56
e 10 19
e 10 27
e 10 69
e 11 35
e 11 69
e 11 77
e 11 79
e 12 47
e 12 64
e 12 74
e 13 17
e 13 18
e 13 23
e 13 33
e 14 18
e 14 29
e 14 30
e 14 74
e 15 25
e 15 36
e 15 43
e 15 62
e 16 27
e 16 29
e 18 27
e 18 59
e 18 65
e 18 67
e 19 24
e 19 40
e 19 45
e 19 55
e 19 74
e 20 46
e 20 49
e 20 55
e 21 48
e 21 54
e 21 79
e 22 35
e 23 35
e 23 46
e 23 55
e 23 77
e 24 78
e 25 31
e 25 35
e 25 36
e 25 77
e 26 32
e 26 54
e 26 70
e 27 32
e 27 37
e 27 41
e 27 45
e 27 54
e 27 62
e 27 73
e 27 76
e 28 38
e 28 53
e 29 33
e 29 49
e 29 56
e 29 60
e 30 54
e 30 77
e 31 60
e 31 67
e 32 45
e 32 54
e 32 79
e 33 73
e 34 67
e 35 76
e 36 42
e 36 53
e 36 79
e 37 71
e 37 80
e 39 48
e 39 51
e 40 60
e 40 77
e 40 80
e 41 51
e 42 60
e 42 68
e 43 70
e 44 80
e 45 68
e 46 76
e 47 59
e 48 54
e 49 80
e 50 69
e 51 52
e 51 54
e 51 60
e 52 56
e 52 79
e 53 64
e 54 58
e 54 71
e 56 73
e 59 63
e 60 71
e 61 63
e 61 65
e 61 66
e 62 72
e 63 73
e 66 76
e 67 75
e 69 75
e 70 76
